(set-logic SLIA)
(constraint (= (f "Nancy FreeHafer") "Dr. Nancy"))
(constraint (= (f "Andrew Cencici") "Dr. Andrew"))
(constraint (= (f "Jan Kotas") "Dr. Jan"))
(constraint (= (f "Mariya Sergienko") "Dr. Mariya"))
(check-synth)
(synth-fun f ((name String)) String ((Start String (ntString)) (ntString String ((Str A) (str.++ ntString A))) (A String ((Str ConstString) (SubStr X P P))) (P Int ((Int ntInt) (Pos X Pattern ntInt Direction))) (Pattern String ((Str ConstString) "ProperCase" "CAPS" "lowercase" "Digits" "Alphabets" "Alphanumeric" "WhiteSpace" "ProperCaseWSpaces" "CAPSWSpaces" "lowercaseSpaces" "AlphabetsWSpaces")) (X String (name)) (ConstString String (name " " "." "Dr.")) (Direction Int (0 1)) (ntInt Int (-5 -4 -3 -2 -1 0 1 2 3 4 5))))
